p wcnf 187 280 281 
1 174 172 0 
1 -162 -2 0 
1 -120 -97 0 
1 41 -126 0 
1 47 169 0 
1 127 -155 0 
1 -27 -76 0 
1 -75 97 0 
1 117 -75 0 
1 -126 -61 0 
1 -24 11 0 
1 -78 -31 0 
1 -43 37 0 
1 -140 -176 0 
1 21 100 0 
1 89 -157 0 
1 -115 -167 0 
1 -22 176 0 
1 -100 -32 0 
1 178 82 0 
1 56 133 0 
1 145 141 0 
1 -171 -187 0 
1 -182 91 0 
1 116 46 0 
1 -45 -146 0 
1 8 151 0 
1 165 -93 0 
1 28 -59 0 
1 145 -81 0 
1 -22 -114 0 
1 -14 61 0 
1 -76 -130 0 
1 108 -182 0 
1 -74 127 0 
1 -152 33 0 
1 -46 31 0 
1 54 -159 0 
1 134 -48 0 
1 -24 -23 0 
1 -124 176 0 
1 -88 113 0 
1 151 129 0 
1 75 116 0 
1 -34 -181 0 
1 26 151 0 
1 -176 -4 0 
1 -150 -11 0 
1 -76 46 0 
1 2 -51 0 
1 -177 -111 0 
1 -157 -126 0 
1 124 50 0 
1 165 90 0 
1 -110 -30 0 
1 1 64 0 
1 -15 -93 0 
1 -134 41 0 
1 171 27 0 
1 -108 78 0 
1 -87 -169 0 
1 -21 -43 0 
1 -26 175 0 
1 143 142 0 
1 118 35 0 
1 -54 -127 0 
1 -55 -101 0 
1 -128 -26 0 
1 -180 35 0 
1 -116 25 0 
1 152 -116 0 
1 23 -167 0 
1 -150 -177 0 
1 144 110 0 
1 -88 174 0 
1 67 -93 0 
1 -120 -179 0 
1 52 -146 0 
1 80 -27 0 
1 61 -64 0 
1 -24 -73 0 
1 43 165 0 
1 152 89 0 
1 -97 -56 0 
1 180 -35 0 
1 -28 14 0 
1 141 -39 0 
1 -186 -85 0 
1 73 72 0 
1 -9 165 0 
1 -135 14 0 
1 173 -20 0 
1 -69 -175 0 
1 20 18 0 
1 172 -63 0 
1 -185 -83 0 
1 -2 -114 0 
1 180 -105 0 
1 -114 162 0 
1 126 -56 0 
1 71 -62 0 
1 130 -9 0 
1 123 -18 0 
1 -106 -181 0 
1 90 -112 0 
1 149 -182 0 
1 -103 -91 0 
1 126 -35 0 
1 90 18 0 
1 122 -153 0 
1 -9 107 0 
1 155 55 0 
1 -97 19 0 
1 -169 102 0 
1 -119 57 0 
1 158 -72 0 
1 128 48 0 
1 65 -47 0 
1 51 -171 0 
1 -161 -160 0 
1 -3 -77 0 
1 137 142 0 
1 129 88 0 
1 -123 56 0 
1 -187 47 0 
1 -176 138 0 
1 -13 124 0 
1 -112 -106 0 
1 74 125 0 
1 -59 -116 0 
1 165 95 0 
1 89 59 0 
1 87 -155 0 
1 96 133 0 
1 30 11 0 
1 -68 115 0 
1 3 31 0 
1 156 157 0 
1 -132 -28 0 
1 75 100 0 
1 92 23 0 
1 -9 7 0 
1 173 160 0 
1 183 178 0 
1 16 42 0 
1 121 -35 0 
1 3 -178 0 
1 43 75 0 
1 -79 -150 0 
1 -119 -174 0 
1 169 -124 0 
1 45 -132 0 
1 -50 -144 0 
1 72 99 0 
1 -48 -58 0 
1 -10 -124 0 
1 -114 170 0 
1 36 123 0 
1 102 -179 0 
1 173 -121 0 
1 -147 -51 0 
1 33 162 0 
1 -28 118 0 
1 158 37 0 
1 53 154 0 
1 72 169 0 
1 -113 110 0 
1 126 -108 0 
1 56 -91 0 
1 -131 10 0 
1 112 178 0 
1 157 16 0 
1 -86 -38 0 
1 113 -23 0 
1 148 122 0 
1 158 182 0 
1 -109 100 0 
1 161 -121 0 
1 -100 -20 0 
1 150 176 0 
1 -105 -8 0 
1 67 134 0 
1 -125 106 0 
1 57 42 0 
1 15 160 0 
1 -3 101 0 
1 13 -52 0 
1 26 -68 0 
1 -133 46 0 
1 -79 -85 0 
1 -10 51 0 
1 12 -21 0 
1 -55 9 0 
1 -184 -182 0 
1 71 -41 0 
1 -48 -29 0 
1 100 110 0 
1 102 -132 0 
1 -28 -159 0 
1 -40 99 0 
1 78 156 0 
1 61 -71 0 
1 73 162 0 
1 184 -9 0 
1 180 32 0 
1 -30 87 0 
1 38 55 0 
1 86 -19 0 
1 129 -181 0 
1 -3 148 0 
1 131 -128 0 
1 -108 -70 0 
1 -1 118 0 
1 -36 71 0 
1 -159 68 0 
1 -148 84 0 
1 -110 29 0 
1 -97 109 0 
1 44 52 0 
1 142 113 0 
1 -177 -162 0 
1 119 -167 0 
1 -74 -44 0 
1 150 164 0 
1 -123 -35 0 
1 55 97 0 
1 101 36 0 
1 5 118 0 
1 68 -74 0 
1 -65 18 0 
1 88 176 0 
1 -130 74 0 
1 -152 80 0 
1 112 180 0 
1 -174 129 0 
1 179 74 0 
1 27 24 0 
1 181 169 0 
1 56 -171 0 
1 174 71 0 
1 9 -79 0 
1 -99 89 0 
1 -132 -141 0 
1 183 -180 0 
1 -40 -126 0 
1 132 -82 0 
1 118 37 0 
1 98 22 0 
1 99 -116 0 
1 82 155 0 
1 -64 18 0 
1 54 -64 0 
1 116 -76 0 
1 134 90 0 
1 -37 -142 0 
1 9 153 0 
1 -99 -95 0 
1 -24 -82 0 
1 72 -168 0 
1 -56 15 0 
1 24 98 0 
1 -110 -38 0 
1 176 -69 0 
1 154 98 0 
1 47 159 0 
1 -158 95 0 
1 100 -156 0 
1 -65 -140 0 
1 1 -28 0 
1 130 56 0 
1 4 84 0 
1 -125 -163 0 
1 -173 -113 0 
1 -42 -187 0 
1 -68 -47 0 
1 -11 -87 0 
1 76 -72 0 
1 80 135 0 
1 -84 88 0 
1 -88 -113 0 
